
  14    4
  10   10   10   10

   0   0   0   0   0   1 2 
   6   1   0   4   0   1 3 
   3   0   0   6   4   1 4 
   2   5   0   0   0   1 5 
   3  10   0   4   7   1 6 
   3   6   5  10   3   3 13 12 7 
  10   0   4   0  10   1 8 
   7   0   0   0   0   1 9 
   2   9   0   0   0   1 10 
   4   0   0   0   0   1 11 
   9   0  10   7   8   1 14
   8   0   0   5   0   1 14
   6   8   0  10   7   1 14
   0   0   0   0   0   0 
